11
0 28 18 41 96 12 26 11 82 5 28 
71 0 87 68 58 14 9 71 71 66 75 
6 2 0 20 95 62 98 96 44 29 40 
81 69 15 0 22 93 67 7 62 87 51 
21 46 51 44 0 18 84 73 79 84 85 
67 48 28 38 64 0 60 57 39 97 19 
87 44 73 88 68 48 0 87 35 5 91 
72 54 8 87 94 31 73 0 11 49 57 
19 80 3 29 29 99 1 4 0 72 23 
72 82 34 27 49 8 11 83 45 0 56 
35 91 32 25 64 83 20 51 66 1 0 
